NAME: ACTUAL_TOURS/amz1724
TYPE: TOUR
COMMENT: RouteID_b8b8b28f-b99b-4b49-bc28-8dc31bd08018
DIMENSION: 121
TOUR_SECTION
101
70
28
96
6
112
18
95
53
52
79
117
24
48
26
107
60
99
64
34
115
63
102
58
36
7
61
15
73
98
81
109
10
93
8
87
35
54
29
3
92
14
69
97
104
47
21
37
85
89
32
40
39
50
75
120
33
83
57
91
94
110
88
11
118
38
103
1
113
22
41
90
76
71
19
59
20
106
68
72
42
30
49
105
5
45
17
82
55
84
44
4
121
12
119
65
116
13
46
114
25
27
9
74
67
43
86
51
80
111
2
66
77
31
23
56
16
62
78
100
108
-1
EOF
